
Log started (V12.10.0.0) Fri Apr 23 07:38:01 2021


Problem 'asset.lp' read.
Read time = 0.01 sec. (0.78 ticks)
New value for default parallel thread count: 1
New value for time limit in seconds: 150
Version identifier: 12.10.0.0 | 2019-11-26 | 843d4de
CPXPARAM_Threads                                 1
CPXPARAM_TimeLimit                               150
Found incumbent of value 0.000000 after 0.00 sec. (0.19 ticks)
Tried aggregator 3 times.
MIP Presolve eliminated 3532 rows and 231 columns.
MIP Presolve modified 4831 coefficients.
Aggregator did 2202 substitutions.
Reduced MIP has 2256 rows, 2923 columns, and 13305 nonzeros.
Reduced MIP has 2634 binaries, 226 generals, 0 SOSs, and 0 indicators.
Presolve time = 0.02 sec. (28.33 ticks)
Probing fixed 108 vars, tightened 3 bounds.
Probing time = 0.02 sec. (15.92 ticks)
Cover probing fixed 0 vars, tightened 22 bounds.
Tried aggregator 1 time.
Detecting symmetries...
MIP Presolve eliminated 158 rows and 118 columns.
MIP Presolve modified 210 coefficients.
Reduced MIP has 2098 rows, 2805 columns, and 12356 nonzeros.
Reduced MIP has 2519 binaries, 223 generals, 0 SOSs, and 0 indicators.
Presolve time = 0.01 sec. (11.36 ticks)
Probing time = 0.00 sec. (3.08 ticks)
Clique table members: 7787.
MIP emphasis: balance optimality and feasibility.
MIP search method: dynamic search.
Parallel mode: none, using 1 thread.
Root relaxation solution time = 0.03 sec. (39.18 ticks)

        Nodes                                         Cuts/
   Node  Left     Objective  IInf  Best Integer    Best Bound    ItCnt     Gap

*     0+    0                            0.0000      940.0000              --- 
      0     0      928.7684   363        0.0000      928.7684      796     --- 
      0     0      925.0000   363        0.0000     Cuts: 624     1993     --- 
      0     0      925.0000   363        0.0000     Cuts: 624     3223     --- 
      0     0      925.0000   363        0.0000     Cuts: 190     4055     --- 
*     0+    0                           10.0000      925.0000              --- 
*     0+    0                           20.0000      925.0000              --- 
      0     0      925.0000   363       20.0000     Cuts: 624     4900     --- 
*     0+    0                           55.0000      925.0000              --- 
*     0+    0                          210.0000      925.0000           340.48%
      0     0        cutoff            210.0000      925.0000     4900  340.48%
Detecting symmetries...
      0     2      925.0000   278      210.0000      925.0000     4900  340.48%
Elapsed time = 1.67 sec. (2346.83 ticks, tree = 0.01 MB, solutions = 4)
      2     4      924.2451   400      210.0000      925.0000     6815  340.48%
     21    23      925.0000   226      210.0000      925.0000     8663  340.48%
     30    32      925.0000   248      210.0000      925.0000    10465  340.48%
     39    41      925.0000   318      210.0000      925.0000    13295  340.48%
     60    62      925.0000   300      210.0000      925.0000    15300  340.48%
     75    77      925.0000   295      210.0000      925.0000    17630  340.48%
     80    82      925.0000   237      210.0000      925.0000    18557  340.48%
     85    87      925.0000   315      210.0000      925.0000    20952  340.48%
    106   108      915.0000   240      210.0000      925.0000    22995  340.48%
    140   142      915.0000   232      210.0000      925.0000    28668  340.48%
Elapsed time = 4.25 sec. (6189.60 ticks, tree = 2.21 MB, solutions = 4)
    160   162      915.0000   238      210.0000      925.0000    33943  340.48%
    211   213      915.0000   240      210.0000      925.0000    42130  340.48%
    240   242      913.8145   351      210.0000      925.0000    51068  340.48%
    396   373      645.0000   100      210.0000      925.0000    61926  340.48%
    462   427      918.0375   358      210.0000      925.0000    69464  340.48%
    481   446      910.0000   337      210.0000      925.0000    74372  340.48%
    500   465      890.0000   331      210.0000      925.0000    83729  340.48%
    526   491      900.0000   244      210.0000      925.0000    92682  340.48%
    587   529      925.0000   357      210.0000      925.0000    98795  340.48%
    603   545      910.0000   316      210.0000      925.0000   104913  340.48%
Elapsed time = 11.00 sec. (16411.58 ticks, tree = 5.84 MB, solutions = 4)
    642   584      908.9198   279      210.0000      925.0000   110065  340.48%
    700   642      894.9751   267      210.0000      925.0000   115153  340.48%
    800   742      830.0000   211      210.0000      925.0000   122471  340.48%
    841   783      895.0000   311      210.0000      925.0000   128579  340.48%
    880   822      884.7279   316      210.0000      925.0000   136409  340.48%
    914   854      759.2376   211      210.0000      925.0000   144706  340.48%
*   934+  872                          285.0000      925.0000           224.56%
*   934+  872                          295.0000      925.0000           213.56%
*   935+  873                          515.0000      925.0000            79.61%
*   935+  873                          530.0000      925.0000            74.53%
*   935+  868                          545.0000      925.0000            69.72%
*   935+  863                          550.0000      925.0000            68.18%
    935   865      907.5000   373      550.0000      925.0000   147116   68.18%
*   936+  862                          565.0000      925.0000            63.72%
*   936+  857                          575.0000      925.0000            60.87%
    937   860      925.0000   370      575.0000      925.0000   149416   60.87%
    964   887      924.5060   349      575.0000      925.0000   154260   60.87%

Performing restart 1

Repeating presolve.
Tried aggregator 1 time.
MIP Presolve eliminated 1 rows and 1 columns.
MIP Presolve modified 3570 coefficients.
Reduced MIP has 2097 rows, 2804 columns, and 10236 nonzeros.
Reduced MIP has 2518 binaries, 223 generals, 0 SOSs, and 0 indicators.
Presolve time = 0.01 sec. (8.99 ticks)
Tried aggregator 1 time.
Reduced MIP has 2097 rows, 2804 columns, and 10236 nonzeros.
Reduced MIP has 2518 binaries, 223 generals, 0 SOSs, and 0 indicators.
Presolve time = 0.01 sec. (7.32 ticks)
Represolve time = 0.06 sec. (48.49 ticks)
   1046     0      910.7023   578      575.0000     Cuts: 449   177990   58.38%
   1046     0      897.3856   578      575.0000     Cuts: 507   180640   56.07%
   1046     0      889.4631   578      575.0000     Cuts: 486   184210   54.69%
   1046     0      884.0261   578      575.0000     Cuts: 420   186643   53.74%
   1046     0      879.5790   578      575.0000     Cuts: 405   201166   52.97%
   1046     0      876.7382   578      575.0000     Cuts: 389   204486   52.48%
   1046     0      874.8380   578      575.0000     Cuts: 450   208371   52.15%
   1046     0      872.9663   578      575.0000     Cuts: 347   212093   51.82%
   1046     0      871.9076   578      575.0000     Cuts: 401   214878   51.64%
   1046     0      871.0901   578      575.0000     Cuts: 341   220214   51.49%
   1046     0      870.8955   578      575.0000     Cuts: 315   222309   51.46%
   1046     0      870.6919   578      575.0000     Cuts: 284   223415   51.42%
   1046     0      870.5121   578      575.0000     Cuts: 246   224811   51.39%
   1046     0      870.2995   578      575.0000     Cuts: 276   227132   51.36%
   1046     0      870.0610   578      575.0000     Cuts: 330   228115   51.31%
   1046     0      869.3061   578      575.0000     Cuts: 300   229551   51.18%
   1046     0      868.6576   578      575.0000     Cuts: 295   231077   51.07%
   1046     0      868.3420   578      575.0000     Cuts: 360   232828   51.02%
   1046     0      867.3370   578      575.0000     Cuts: 279   234732   50.84%
   1046     0      866.9364   578      575.0000     Cuts: 297   235921   50.77%
   1046     0      866.6088   578      575.0000     Cuts: 284   237362   50.71%
   1046     0      866.5385   578      575.0000     Cuts: 233   239184   50.70%
   1046     0      866.5016   578      575.0000     Cuts: 329   240095   50.70%
   1046     0      866.4396   578      575.0000     Cuts: 293   241122   50.69%
   1046     0      866.3012   578      575.0000     Cuts: 220   242473   50.66%
   1046     0      866.1917   578      575.0000     Cuts: 235   243578   50.64%
   1046     0      866.0488   578      575.0000     Cuts: 232   244513   50.62%
*  1046+    0                          580.0000      866.0488            49.32%
   1046     2      866.0488   525      580.0000      866.0465   244513   49.32%
Elapsed time = 56.59 sec. (79077.76 ticks, tree = 0.01 MB, solutions = 13)
   1048     4      865.6918   493      580.0000      865.6918   247537   49.26%
   1050     6      854.9079   385      580.0000      865.6807   250405   49.26%
   1052     8      861.6664   469      580.0000      865.6786   254717   49.25%
   1054    10      865.3191   438      580.0000      865.6786   257841   49.25%
   1056    12      865.1004   463      580.0000      865.6786   260140   49.25%
   1060    16      864.6397   442      580.0000      865.6786   264289   49.25%
   1063    19      862.6651   394      580.0000      865.6786   267526   49.25%
   1066    22      864.3001   437      580.0000      865.6786   271524   49.25%
   1070    26      861.8479   379      580.0000      865.6786   274649   49.25%
   1074    30      848.2383   384      580.0000      865.6786   279016   49.25%
Elapsed time = 65.83 sec. (92840.82 ticks, tree = 0.22 MB, solutions = 13)
   1076    32      862.8376   416      580.0000      865.6786   279417   49.25%
   1080    36      862.6820   407      580.0000      865.6786   282739   49.25%
   1083    39      862.4199   416      580.0000      865.6786   286298   49.25%
   1086    42      842.2838   345      580.0000      865.6786   291233   49.25%
   1092    46      860.1114   398      580.0000      865.6786   295556   49.25%
   1096    50      859.0955   388      580.0000      865.6786   298548   49.25%
   1101    55      848.3148   395      580.0000      865.6786   304697   49.25%
   1105    59      858.2044   385      580.0000      865.6786   310769   49.25%
   1110    64      847.0156   334      580.0000      865.6786   317421   49.25%
   1114    68      836.8232   327      580.0000      865.6786   323559   49.25%
Elapsed time = 73.95 sec. (105463.63 ticks, tree = 0.51 MB, solutions = 13)
   1119    73      852.5818   379      580.0000      865.6786   328681   49.25%
   1125    79      848.1627   357      580.0000      865.6786   335355   49.25%
   1132    86      842.3095   366      580.0000      865.6786   340793   49.25%
   1137    91      845.6013   351      580.0000      865.6786   346735   49.25%
   1145    99      843.8034   385      580.0000      865.6786   352856   49.25%
   1148   102      836.9659   359      580.0000      865.6786   355827   49.25%
   1156   110      839.9012   376      580.0000      865.6786   362270   49.25%
   1163   117      827.6976   327      580.0000      865.6786   368483   49.25%
   1173   127      831.5932   334      580.0000      865.6786   374380   49.25%
   1183   137      819.7420   306      580.0000      865.6786   380607   49.25%
Elapsed time = 80.29 sec. (115816.87 ticks, tree = 0.75 MB, solutions = 13)
   1188   142      828.6385   339      580.0000      865.6786   382712   49.25%
   1199   153      812.9858   319      580.0000      865.6786   388417   49.25%
   1209   163      815.3278   316      580.0000      865.6786   394153   49.25%
   1221   175      820.5939   312      580.0000      865.6786   399682   49.25%
   1228   182      816.9633   339      580.0000      865.6786   402864   49.25%
   1246   200      813.4038   336      580.0000      865.6786   407715   49.25%
   1263   217      792.4928   271      580.0000      865.6786   414228   49.25%
   1278   231      782.2757   268      580.0000      865.6786   420182   49.25%
   1307   260      744.7564   247      580.0000      865.6786   427591   49.25%
   1311   261      860.8016   423      580.0000      865.5152   433612   49.23%
Elapsed time = 87.11 sec. (126761.73 ticks, tree = 0.96 MB, solutions = 13)
   1315   265      841.9526   393      580.0000      865.5152   440277   49.23%
   1319   269      855.5628   410      580.0000      865.5152   448024   49.23%
   1326   276      847.7493   380      580.0000      865.5152   454911   49.23%
   1334   284      833.2333   354      580.0000      865.5152   461241   49.23%
   1343   293      816.7262   328      580.0000      865.5152   467060   49.23%
   1348   298      824.4536   335      580.0000      865.5152   471059   49.23%
   1364   314      819.2781   318      580.0000      865.5152   478071   49.23%
   1378   328      790.0011   298      580.0000      865.5152   483877   49.23%
   1397   347      807.8956   287      580.0000      865.5152   491666   49.23%
   1417   367      800.4048   260      580.0000      865.5152   498612   49.23%
Elapsed time = 93.86 sec. (137495.97 ticks, tree = 1.12 MB, solutions = 13)
   1446   391      776.4576   255      580.0000      865.5152   504954   49.23%
   1501   428      856.8278   445      580.0000      865.0821   517813   49.15%
   1503   430      858.9577   475      580.0000      865.0354   522975   49.14%
   1509   436      854.0716   389      580.0000      865.0354   528872   49.14%
   1517   444      838.9650   400      580.0000      865.0354   534721   49.14%
   1525   452      832.3401   396      580.0000      865.0354   539904   49.14%
   1531   458      828.0884   360      580.0000      865.0354   542494   49.14%
   1558   485      821.4731   342      580.0000      865.0354   548192   49.14%
   1583   510      792.9732   329      580.0000      865.0354   553898   49.14%
   1631   554      753.3844   267      580.0000      865.0354   559744   49.14%
Elapsed time = 101.83 sec. (149839.54 ticks, tree = 1.44 MB, solutions = 13)
   1648   571      855.1069   417      580.0000      865.0333   563795   49.14%
   1652   575      846.8027   420      580.0000      865.0333   570839   49.14%
   1658   581      841.3289   400      580.0000      865.0333   577045   49.14%
   1664   587      813.2072   390      580.0000      865.0333   583505   49.14%
   1679   602      806.8911   370      580.0000      865.0333   591265   49.14%
   1686   609      797.0714   379      580.0000      865.0333   594511   49.14%
   1704   627      790.1532   346      580.0000      865.0333   601595   49.14%
   1741   664      761.9910   273      580.0000      865.0333   608443   49.14%
   1774   693      862.3409   447      580.0000      864.5465   616153   49.06%
   1803   722      839.8149   348      580.0000      864.5465   645422   49.06%
Elapsed time = 111.40 sec. (164524.57 ticks, tree = 1.70 MB, solutions = 13)
*  1846+  763                          585.0000      864.5465            47.79%
*  1846+  763                          610.0000      864.5465            41.73%
*  1846+  763                          620.0000      864.5465            39.44%
*  1846+  763                          625.0000      864.5465            38.33%
*  1846+  763                          630.0000      864.5465            37.23%
   1846   765      819.9366   344      630.0000      864.5465   676826   37.23%
   1923   840      786.5876   279      630.0000      864.5465   700169   37.23%
   1951   864        cutoff            630.0000      864.5465   712595   37.23%
   1966   875      840.2757   400      630.0000      864.4744   729853   37.22%
*  2046+  953                          635.0000      864.4744            36.14%
*  2046+  953                          640.0000      864.4744            35.07%
   2046   955      798.1343   341      640.0000      864.4744   746620   35.07%
   2073   976      844.7419   424      640.0000      864.4542   767818   35.07%
   2144  1047      799.4911   307      640.0000      864.4542   793882   35.07%
*  2146+ 1047                          645.0000      864.4542            34.02%
*  2146+ 1047                          650.0000      864.4542            32.99%
*  2146+ 1047                          655.0000      864.4542            31.98%
   2192  1089      858.5652   453      655.0000      864.2978   807573   31.95%
   2234  1131      817.2004   347      655.0000      864.2978   837100   31.95%
Starting limited solution polishing.
   2254  1150      792.4112   351      655.0000      864.2978   842955   31.95%
Elapsed time = 140.21 sec. (206354.21 ticks, tree = 2.39 MB, solutions = 23)
   2308  1200      836.9108   424      655.0000      864.2273   864435   31.94%
*  2346+ 1236                          660.0000      864.2273            30.94%
   2346  1238      804.2169   353      660.0000      864.2273   883380   30.94%
   2419  1305      845.4478   375      660.0000      863.8497   906542   30.89%

GUB cover cuts applied:  145
Clique cuts applied:  127
Cover cuts applied:  36
Implied bound cuts applied:  79
Flow cuts applied:  15
Mixed integer rounding cuts applied:  99
Zero-half cuts applied:  93
Lift and project cuts applied:  11
Gomory fractional cuts applied:  4

Root node processing (before b&c):
  Real time             =    1.66 sec. (2336.60 ticks)
Sequential b&c:
  Real time             =  148.34 sec. (218356.12 ticks)
                          ------------
Total (root+branch&cut) =  150.00 sec. (220692.72 ticks)

Solution pool: 25 solutions saved.

MIP - Time limit exceeded, integer feasible:  Objective =  6.6000000000e+02
Current MIP best bound =  8.6384966708e+02 (gap = 203.85, 30.89%)
Solution time =  150.00 sec.  Iterations = 927631  Nodes = 2434 (1319)
Deterministic time = 220692.73 ticks  (1471.26 ticks/sec)


Incumbent solution
Variable Name           Solution Value
F                           660.000000
y58                           1.000000
y16                           1.000000
y88                           1.000000
y264                          1.000000
y206                          1.000000
y215                          1.000000
y3                            1.000000
y251                          1.000000
y187                          1.000000
y73                           1.000000
y23                           1.000000
y20                           1.000000
y238                          1.000000
y306                          1.000000
y129                          1.000000
y128                          1.000000
y164                          1.000000
y45                           1.000000
y12                           1.000000
y33                           1.000000
y75                           1.000000
y7                            1.000000
y162                          1.000000
y141                          1.000000
y293                          1.000000
y68                           1.000000
y175                          1.000000
y62                           1.000000
y232                          1.000000
y282                          1.000000
y19                           1.000000
y25                           1.000000
y205                          1.000000
y30                           1.000000
y229                          1.000000
y48                           1.000000
y64                           1.000000
y133                          1.000000
y269                          1.000000
y209                          1.000000
y287                          1.000000
y1                            1.000000
x57x73x1                      1.000000
x65x88x1                      1.000000
x104x7x1                      2.000000
x284x206x1                    1.000000
x176x187x1                    1.000000
x119x23x1                     1.000000
x126x251x1                    1.000000
x22x306x1                     1.000000
x22x33x1                      1.000000
x169x164x1                    1.000000
x169x229x1                    1.000000
x109x238x2                    1.000000
x109x75x2                     1.000000
x231x20x2                     1.000000
x174x58x2                     1.000000
x237x16x2                     2.000000
x201x88x2                     1.000000
x4x215x2                      2.000000
x284x3x2                      1.000000
x176x187x2                    1.000000
x119x129x2                    1.000000
x231x58x3                     1.000000
x174x206x3                    1.000000
x57x73x3                      1.000000
x65x128x3                     1.000000
x257x264x3                    1.000000
x257x251x3                    1.000000
x201x129x3                    1.000000
x165x3x3                      1.000000
x165x20x3                     1.000000
x126x264x3                    1.000000
x212x23x3                     1.000000
x212x238x3                    1.000000
x58x164x2                     1.000000
x58x229x3                     1.000000
x16x128x2                     1.000000
x16x45x2                      1.000000
x88x12x1                      1.000000
x88x293x2                     1.000000
x264x12x3                     1.000000
x264x232x3                    1.000000
x206x45x1                     1.000000
x206x205x3                    1.000000
x215x175x2                    2.000000
x3x30x2                       1.000000
x3x162x3                      1.000000
x251x205x1                    1.000000
x251x162x3                    1.000000
x187x293x1                    1.000000
x187x62x2                     1.000000
x73x75x1                      1.000000
x73x33x3                      1.000000
x23x1x1                       1.000000
x23x62x3                      1.000000
x20x30x2                      1.000000
x20x306x3                     1.000000
x238x25x2                     1.000000
x238x0x3                      1.000000
x306x282x1                    1.000000
x306x19x3                     1.000000
x129x141x2                    1.000000
x129x68x3                     1.000000
x128x133x2                    1.000000
x128x133x3                    1.000000
x164x269x1                    1.000000
x164x0x2                      1.000000
x45x209x1                     1.000000
x45x0x2                       1.000000
x12x0x1                       1.000000
x12x1x3                       1.000000
x33x282x1                     1.000000
x33x19x3                      1.000000
x75x141x1                     1.000000
x75x25x2                      1.000000
x7x68x1                       1.000000
x7x232x1                      1.000000
x162x0x3                      2.000000
x141x0x1                      1.000000
x141x0x2                      1.000000
x293x0x1                      1.000000
x293x0x2                      1.000000
x68x0x1                       1.000000
x68x0x3                       1.000000
x175x287x2                    2.000000
x62x0x2                       1.000000
x62x0x3                       1.000000
x232x0x1                      1.000000
x232x0x3                      1.000000
x282x0x1                      2.000000
x19x0x3                       2.000000
x25x0x2                       2.000000
x205x269x1                    1.000000
x205x209x3                    1.000000
x30x48x2                      2.000000
x229x64x1                     1.000000
x229x64x3                     1.000000
x48x0x2                       2.000000
x64x0x1                       1.000000
x64x0x3                       1.000000
x133x0x2                      1.000000
x133x0x3                      1.000000
x269x0x1                      2.000000
x209x0x1                      1.000000
x209x0x3                      1.000000
x287x0x2                      2.000000
x1x0x1                        1.000000
x1x0x3                        1.000000
s109                          5.800234
s187                          6.697280
s20                           6.341928
s238                          7.305273
z109z238z2                    1.000000
s186                          7.920000
s129                          7.233789
s128                          7.504851
s164                          7.658978
s45                           7.951198
s295                          7.180000
s75                           7.360000
z109z75z2                     1.000000
s141                          8.380000
s293                          8.294794
s175                          8.018779
s62                           8.490000
s25                           8.620000
z109z25z2                     1.000000
s30                           7.836610
z109z30z2                     1.000000
s80                           7.870000
s48                           8.990000
z109z48z2                     1.000000
s133                          8.965189
s287                          9.470000
z109z287z2                    1.000000
s231                          4.554590
s58                           6.063252
z231z58z3                     1.000000
s16                           6.096712
s88                           6.573937
s264                          6.644784
s254                          5.860000
s206                          6.422888
s215                          6.383605
s289                          5.940000
s3                            6.266555
s251                          6.663860
s226                          6.070000
s73                           6.150000
s181                          6.180000
s239                          6.200000
z231z239z3                    1.000000
s23                           7.290000
z231z20z2                     1.000000
s77                           6.520000
s70                           7.560000
z231z70z3                     1.000000
s94                           6.680000
z231z94z3                     1.000000
z231z186z2                    1.000000
s306                          7.426256
s145                          6.970000
s294                          8.010000
z231z294z3                    1.000000
s185                          7.551033
z231z185z3                    1.000000
s15                           7.220000
s12                           8.130903
s33                           7.387604
s150                          8.300000
z231z150z3                    1.000000
s162                          8.144692
z231z162z3                    1.000000
s68                           8.430000
z231z175z2                    1.000000
s232                          8.379814
s266                          8.560000
z231z266z3                    1.000000
s19                           8.590000
z231z19z3                     1.000000
z231z25z2                     1.000000
s205                          8.077086
z231z30z2                     1.000000
s2                            8.900000
z231z2z3                      1.000000
s229                          7.971144
z231z48z2                     1.000000
s64                           8.990000
s250                          8.030000
s209                          9.470000
z231z287z2                    1.000000
s1                            9.490000
s174                          4.580100
z174z58z2                     1.000000
z174z206z3                    1.000000
z174z239z3                    1.000000
z174z70z3                     1.000000
z174z94z3                     1.000000
z174z186z2                    1.000000
z174z294z3                    1.000000
z174z185z3                    1.000000
z174z150z3                    1.000000
z174z162z3                    1.000000
z174z175z2                    1.000000
z174z266z3                    1.000000
z174z19z3                     1.000000
z174z25z2                     1.000000
z174z30z2                     1.000000
z174z2z3                      1.000000
z174z48z2                     1.000000
z174z287z2                    1.000000
s57                           4.562770
s66                           6.728169
z57z73z1                      1.000000
z57z73z3                      1.000000
z57z239z3                     1.000000
z57z70z3                      1.000000
z57z94z3                      1.000000
z57z294z3                     1.000000
z57z185z3                     1.000000
s230                          7.160000
z57z230z1                     1.000000
z57z150z3                     1.000000
s7                            7.350000
z57z7z1                       1.000000
z57z162z3                     1.000000
s111                          8.510000
z57z111z1                     1.000000
z57z266z3                     1.000000
s282                          8.580000
z57z282z1                     1.000000
z57z19z3                      1.000000
s233                          7.700000
z57z233z1                     1.000000
s149                          8.719999
z57z149z1                     1.000000
s55                           8.860000
z57z55z1                      1.000000
s177                          8.860000
z57z177z1                     1.000000
z57z2z3                       1.000000
s269                          9.280000
z57z269z1                     1.000000
s237                          4.463590
z237z16z2                     1.000000
z237z186z2                    1.000000
z237z175z2                    1.000000
z237z25z2                     1.000000
z237z30z2                     1.000000
z237z48z2                     1.000000
z237z287z2                    1.000000
s65                           5.152180
z65z88z1                      1.000000
z65z94z3                      1.000000
z65z128z3                     1.000000
z65z294z3                     1.000000
z65z185z3                     1.000000
z65z230z1                     1.000000
z65z150z3                     1.000000
z65z7z1                       1.000000
z65z162z3                     1.000000
z65z111z1                     1.000000
z65z266z3                     1.000000
z65z282z1                     1.000000
z65z19z3                      1.000000
z65z233z1                     1.000000
z65z149z1                     1.000000
z65z55z1                      1.000000
z65z177z1                     1.000000
z65z2z3                       1.000000
z65z269z1                     1.000000
s104                          5.161490
z104z66z1                     1.000000
z104z7z1                      1.000000
z104z111z1                    1.000000
z104z282z1                    1.000000
z104z233z1                    1.000000
z104z149z1                    1.000000
z104z55z1                     1.000000
z104z177z1                    1.000000
z104z269z1                    1.000000
s257                          5.212940
z257z264z3                    1.000000
z257z251z3                    1.000000
z257z294z3                    1.000000
z257z185z3                    1.000000
z257z150z3                    1.000000
z257z162z3                    1.000000
z257z266z3                    1.000000
z257z19z3                     1.000000
z257z2z3                      1.000000
s201                          5.116790
z201z88z2                     1.000000
z201z94z3                     1.000000
z201z186z2                    1.000000
z201z129z3                    1.000000
z201z294z3                    1.000000
z201z185z3                    1.000000
z201z150z3                    1.000000
z201z162z3                    1.000000
z201z175z2                    1.000000
z201z266z3                    1.000000
z201z19z3                     1.000000
z201z25z2                     1.000000
z201z30z2                     1.000000
z201z2z3                      1.000000
z201z48z2                     1.000000
z201z287z2                    1.000000
s4                            4.918350
z4z215z2                      1.000000
z4z186z2                      1.000000
z4z175z2                      1.000000
z4z25z2                       1.000000
z4z30z2                       1.000000
z4z48z2                       1.000000
z4z287z2                      1.000000
s165                          4.809610
z165z264z3                    1.000000
z165z3z3                      1.000000
z165z20z3                     1.000000
z165z70z3                     1.000000
z165z94z3                     1.000000
z165z294z3                    1.000000
z165z185z3                    1.000000
z165z150z3                    1.000000
z165z162z3                    1.000000
z165z266z3                    1.000000
z165z19z3                     1.000000
z165z2z3                      1.000000
s284                          4.766780
z284z206z1                    1.000000
z284z3z2                      1.000000
z284z186z2                    1.000000
z284z230z1                    1.000000
z284z7z1                      1.000000
z284z175z2                    1.000000
z284z111z1                    1.000000
z284z282z1                    1.000000
z284z25z2                     1.000000
z284z233z1                    1.000000
z284z149z1                    1.000000
z284z30z2                     1.000000
z284z55z1                     1.000000
z284z177z1                    1.000000
z284z48z2                     1.000000
z284z269z1                    1.000000
z284z287z2                    1.000000
s176                          5.133600
z176z187z1                    1.000000
z176z187z2                    1.000000
z176z7z1                      1.000000
z176z175z2                    1.000000
z176z111z1                    1.000000
z176z282z1                    1.000000
z176z25z2                     1.000000
z176z233z1                    1.000000
z176z149z1                    1.000000
z176z30z2                     1.000000
z176z55z1                     1.000000
z176z177z1                    1.000000
z176z48z2                     1.000000
z176z269z1                    1.000000
z176z287z2                    1.000000
s119                          5.192580
z119z23z1                     1.000000
z119z186z2                    1.000000
z119z129z2                    1.000000
z119z230z1                    1.000000
z119z7z1                      1.000000
z119z175z2                    1.000000
z119z111z1                    1.000000
z119z282z1                    1.000000
z119z25z2                     1.000000
z119z233z1                    1.000000
z119z149z1                    1.000000
z119z30z2                     1.000000
z119z55z1                     1.000000
z119z177z1                    1.000000
z119z48z2                     1.000000
z119z269z1                    1.000000
z119z287z2                    1.000000
s126                          5.401930
z126z264z3                    1.000000
z126z251z1                    1.000000
z126z294z3                    1.000000
z126z230z1                    1.000000
z126z150z3                    1.000000
z126z7z1                      1.000000
z126z162z3                    1.000000
z126z111z1                    1.000000
z126z266z3                    1.000000
z126z282z1                    1.000000
z126z19z3                     1.000000
z126z233z1                    1.000000
z126z149z1                    1.000000
z126z55z1                     1.000000
z126z177z1                    1.000000
z126z2z3                      1.000000
z126z269z1                    1.000000
s212                          5.895540
z212z23z3                     1.000000
z212z238z3                    1.000000
z212z266z3                    1.000000
z212z19z3                     1.000000
z212z2z3                      1.000000
s22                           5.880710
z22z306z1                     1.000000
z22z33z1                      1.000000
z22z282z1                     1.000000
z22z233z1                     1.000000
z22z149z1                     1.000000
z22z55z1                      1.000000
z22z177z1                     1.000000
z22z269z1                     1.000000
s169                          5.977110
z169z164z1                    1.000000
z169z282z1                    1.000000
z169z233z1                    1.000000
z169z149z1                    1.000000
z169z55z1                     1.000000
z169z177z1                    1.000000
z169z229z1                    1.000000
z169z269z1                    1.000000
z58z164z2                     1.000000
z58z25z2                      1.000000
z58z2z3                       1.000000
z58z229z3                     1.000000
z58z48z2                      1.000000
z58z287z2                     1.000000
z16z128z2                     1.000000
z16z45z2                      1.000000
z16z175z2                     1.000000
z16z48z2                      1.000000
z16z287z2                     1.000000
z88z12z1                      1.000000
z88z293z2                     1.000000
z88z269z1                     1.000000
z88z287z2                     1.000000
z264z12z3                     1.000000
z264z232z3                    1.000000
z254z287z2                    1.000000
z206z45z1                     1.000000
z206z205z3                    1.000000
z215z175z2                    1.000000
z215z25z2                     1.000000
z215z30z2                     1.000000
z215z48z2                     1.000000
z215z287z2                    1.000000
z3z162z3                      1.000000
z3z30z2                       1.000000
z3z287z2                      1.000000
z66z269z1                     1.000000
z251z162z3                    1.000000
z251z205z1                    1.000000
z187z293z1                    1.000000
z187z62z2                     1.000000
z187z287z2                    1.000000
z73z33z3                      1.000000
z73z75z1                      1.000000
z23z62z3                      1.000000
z23z1z1                       1.000000
z20z306z3                     1.000000
z20z30z2                      1.000000
z20z287z2                     1.000000
z238z25z2                     1.000000
z238z287z2                    1.000000
z186z287z2                    1.000000
z306z282z1                    1.000000
z306z19z3                     1.000000
z129z141z2                    1.000000
z129z68z3                     1.000000
z128z133z2                    1.000000
z128z133z3                    1.000000
z164z269z1                    1.000000
z185z2z3                      1.000000
z45z209z1                     1.000000
z12z1z3                       1.000000
z33z282z1                     1.000000
z33z19z3                      1.000000
z75z141z1                     1.000000
z75z25z2                      1.000000
z7z68z1                       1.000000
z7z232z1                      1.000000
z175z287z2                    1.000000
z233z149z1                    1.000000
z233z55z1                     1.000000
z205z269z1                    1.000000
z205z209z3                    1.000000
z30z48z2                      1.000000
z229z64z1                     1.000000
z229z64z3                     1.000000
All other variables in the range 1-5357 are 0.
